p tw 328 381
1 2
2 113
3 14
4 5
5 6
6 7
6 13
7 8
8 9
9 10
9 13
10 11
11 12
12 16
13 15
14 169
15 16
16 17
17 18
18 19
19 20
20 21
20 221
21 22
22 23
23 24
24 26
25 36
26 27
27 28
28 29
28 32
29 30
30 31
31 46
32 33
33 34
34 35
34 42
35 37
36 47
37 38
38 39
38 42
39 40
40 41
41 44
42 43
43 44
44 45
45 46
46 48
47 58
47 125
48 49
49 50
49 22
50 254
51 52
52 53
53 54
53 221
54 55
55 56
56 57
57 59
58 69
59 60
59 63
60 61
61 62
62 77
63 64
64 65
65 66
65 73
66 67
67 68
68 70
68 73
69 80
70 71
71 72
72 75
73 74
74 75
75 76
76 77
77 78
78 79
79 81
79 221
80 91
80 125
81 82
82 83
83 84
84 85
85 86
85 89
86 87
87 88
88 104
89 90
90 92
91 102
92 93
92 99
93 94
94 95
95 96
95 99
96 97
97 98
98 101
99 100
100 101
101 103
102 114
103 104
104 105
105 106
106 107
106 221
107 108
108 109
109 110
110 111
111 112
111 117
112 115
113 224
114 147
115 116
116 131
117 118
118 119
119 120
119 127
120 121
121 122
122 123
122 127
123 124
124 126
125 136
126 129
127 128
128 129
129 130
130 131
131 132
132 133
133 134
133 221
134 135
135 137
136 147
137 138
138 139
139 140
139 143
140 141
141 142
142 157
143 144
144 145
145 146
145 153
146 148
147 158
148 149
149 150
149 153
150 151
151 152
152 155
153 154
154 155
155 156
156 157
157 159
158 169
159 160
160 161
160 221
161 162
162 163
163 164
164 165
165 166
166 167
166 171
167 168
168 170
169 180
170 173
171 172
172 173
173 174
174 175
175 176
175 161
176 177
177 178
178 179
178 214
179 181
180 191
181 182
182 183
183 184
184 185
184 188
185 186
186 187
187 190
188 189
189 190
190 192
191 202
191 224
192 193
193 194
194 195
194 214
195 196
196 197
196 218
197 198
198 199
198 218
199 200
200 201
201 203
202 213
203 204
204 205
204 208
205 206
206 207
207 210
208 209
209 210
210 211
211 212
212 214
212 218
213 225
214 215
215 216
216 217
217 221
218 219
219 220
220 221
221 222
222 223
223 226
223 259
224 263
225 236
226 227
227 228
228 229
229 230
230 231
231 232
231 235
232 233
233 234
234 250
235 237
236 247
237 238
238 239
238 245
239 240
240 241
241 242
241 245
242 243
243 244
244 248
245 246
246 248
247 256
248 249
249 250
250 251
251 252
252 253
252 226
253 259
254 255
256 257
257 258
258 259
259 260
260 261
261 262
262 264
263 274
264 265
265 266
265 269
266 267
267 268
268 283
269 270
270 271
271 272
271 279
272 273
273 275
274 285
275 276
275 279
276 277
277 278
278 281
279 280
280 281
281 282
282 283
283 284
284 286
285 296
286 287
286 289
287 288
288 289
288 51
289 290
290 291
291 292
292 293
293 294
294 295
294 299
295 297
296 307
297 298
298 313
299 300
300 301
301 302
301 309
302 303
303 304
304 305
304 309
305 306
306 308
307 318
307 25
308 311
309 310
310 311
311 312
312 313
313 314
314 315
315 316
315 289
316 317
317 319
317 289
318 3
319 320
320 321
320 221
321 322
322 323
323 324
324 325
325 326
325 4
326 327
327 328
328 18
